qbf_easy_train/easy_1139_SAT.qdimacs
p cnf 21 53
a 9 19 0
e 1 2 3 4 5 6 7 8 10 11 12 13 14 15 16 17 18 20 21 0
1 -2 -3 0
-1 2 -3 0
1 2 3 0
-1 -2 3 0
7 -5 0
7 6 0
5 -6 -7 0
-8 -4 0
-8 -7 0
4 7 8 0
-8 9 -10 0
8 -9 -10 0
-8 -9 10 0
8 9 10 0
10 -11 -12 0
-10 11 -12 0
10 11 12 0
-10 -11 12 0
-14 13 0
-14 -2 0
-13 2 14 0
15 7 0
15 14 0
-7 -14 -15 0
12 -15 -16 0
-12 15 -16 0
12 15 16 0
-12 -15 16 0
-10 14 -17 0
10 -14 -17 0
-10 -14 17 0
10 14 17 0
4 5 -18 0
-4 -5 -18 0
4 -5 18 0
-4 5 18 0
-19 17 0
-19 18 0
-17 -18 19 0
-16 -19 -20 0
16 19 -20 0
-16 19 20 0
16 -19 20 0
3 20 -21 0
-3 -20 -21 0
3 -20 21 0
-3 20 21 0
-5 -2 -15 -17 -21 12 0
-7 17 -20 0
6 17 -11 14 -13 0
15 3 20 0
-14 -2 -1 17 7 -8 6 0
21 0
