sat_easy_train/easy_1139_SAT.dimacs
p cnf 140 468
4 -2 0
4 -3 0
2 3 -4 0
6 5 0
6 -1 0
-5 1 -6 0
7 -4 0
7 -6 0
4 6 -7 0
-8 7 0
-8 -5 0
-7 5 8 0
-1 8 -9 0
1 -8 -9 0
-1 -8 9 0
1 8 9 0
12 -10 0
12 11 0
10 -11 -12 0
-13 -12 0
-13 -3 0
12 3 13 0
14 13 0
14 10 0
-13 -10 -14 0
-15 16 -17 0
15 -16 -17 0
-15 -16 17 0
15 16 17 0
7 17 -18 0
-7 -17 -18 0
7 -17 18 0
-7 17 18 0
-14 -18 -19 0
14 18 -19 0
-14 18 19 0
14 -18 19 0
6 -16 -20 0
-6 16 -20 0
6 16 20 0
-6 -16 20 0
22 -20 0
22 -21 0
20 21 -22 0
-24 3 0
-24 -23 0
-3 23 24 0
26 25 0
26 15 0
-25 -15 -26 0
27 3 0
27 26 0
-3 -26 -27 0
-28 -24 0
-28 27 0
24 -27 28 0
29 -6 0
29 -28 0
6 28 -29 0
-23 -30 -31 0
23 30 -31 0
-23 30 31 0
23 -30 31 0
-32 23 0
-32 31 0
-23 -31 32 0
33 32 0
33 -32 0
-34 29 0
-34 33 0
-29 -33 34 0
-35 22 0
-35 -34 0
-22 34 35 0
36 1 -37 0
-36 -1 -37 0
36 -1 37 0
-36 1 37 0
23 -37 -38 0
-23 37 -38 0
23 37 38 0
-23 -37 38 0
39 35 0
39 38 0
-35 -38 -39 0
-40 -19 0
-40 -39 0
19 39 40 0
-41 9 0
-41 40 0
-9 -40 41 0
-42 23 0
-42 -5 0
-23 5 42 0
-42 36 -43 0
42 -36 -43 0
-42 -36 43 0
42 36 43 0
44 36 0
44 -1 0
-36 1 -44 0
-46 1 0
-46 5 0
-1 -5 46 0
-47 -45 0
-47 -46 0
45 46 47 0
48 -47 0
48 11 0
47 -11 -48 0
-44 -48 -49 0
44 48 -49 0
-44 48 49 0
44 -48 49 0
50 -43 0
50 49 0
43 -49 -50 0
51 -13 0
51 -46 0
13 46 -51 0
-52 50 0
-52 -51 0
-50 51 52 0
-10 15 -53 0
10 -15 -53 0
-10 -15 53 0
10 15 53 0
-53 6 -54 0
53 -6 -54 0
-53 -6 54 0
53 6 54 0
-52 54 -55 0
52 -54 -55 0
-52 -54 55 0
52 54 55 0
-56 -41 0
-56 55 0
41 -55 56 0
-57 -47 0
-57 -32 0
47 32 57 0
58 -57 0
58 -7 0
57 7 -58 0
59 36 0
59 26 0
-36 -26 -59 0
-60 -36 0
-60 -30 0
36 30 60 0
-61 -60 0
-61 -32 0
60 32 61 0
-62 59 0
-62 61 0
-59 -61 62 0
24 -37 -63 0
-24 37 -63 0
24 37 63 0
-24 -37 63 0
-64 11 0
-64 -26 0
-11 26 64 0
65 -10 0
65 -45 0
10 45 -65 0
66 -64 0
66 -65 0
64 65 -66 0
-67 -32 0
-67 -11 0
32 11 67 0
-68 67 0
-68 46 0
-67 -46 68 0
69 4 0
69 3 0
-4 -3 -69 0
3 69 -70 0
-3 -69 -70 0
3 -69 70 0
-3 69 70 0
-68 -70 -71 0
68 70 -71 0
-68 70 71 0
68 -70 71 0
72 -66 0
72 71 0
66 -71 -72 0
36 45 -73 0
-36 -45 -73 0
36 -45 73 0
-36 45 73 0
74 -31 0
74 -73 0
31 73 -74 0
75 -20 0
75 -74 0
20 74 -75 0
76 13 0
76 -60 0
-13 60 -76 0
-77 75 0
-77 76 0
-75 -76 77 0
78 -72 0
78 77 0
72 -77 -78 0
79 -63 0
79 -78 0
63 78 -79 0
6 1 -80 0
-6 -1 -80 0
6 -1 80 0
-6 1 80 0
13 21 -81 0
-13 -21 -81 0
13 -21 81 0
-13 21 81 0
-80 81 -82 0
80 -81 -82 0
-80 -81 82 0
80 81 82 0
83 -82 0
83 67 0
82 -67 -83 0
84 -11 0
84 81 0
11 -81 -84 0
85 83 0
85 84 0
-83 -84 -85 0
-32 -30 -86 0
32 30 -86 0
-32 30 86 0
32 -30 86 0
-87 -85 0
-87 86 0
85 -86 87 0
88 -69 -89 0
-88 69 -89 0
88 69 89 0
-88 -69 89 0
-90 87 0
-90 -89 0
-87 89 90 0
-91 79 0
-91 -90 0
-79 90 91 0
92 -62 0
92 91 0
62 -91 -92 0
-93 58 0
-93 -92 0
-58 92 93 0
94 -56 0
94 93 0
56 -93 -94 0
-95 -32 -96 0
95 32 -96 0
-95 32 96 0
95 -32 96 0
97 -23 0
97 13 0
23 -13 -97 0
-96 97 -98 0
96 -97 -98 0
-96 -97 98 0
96 97 98 0
-99 23 0
-99 -95 0
-23 95 99 0
100 37 0
100 -99 0
-37 99 -100 0
-100 -81 -101 0
100 81 -101 0
-100 81 101 0
100 -81 101 0
-102 -37 0
-102 -101 0
37 101 102 0
-103 102 0
-103 21 0
-102 -21 103 0
-100 -103 -104 0
100 103 -104 0
-100 103 104 0
100 -103 104 0
-105 47 0
-105 27 0
-47 -27 105 0
-106 -104 0
-106 -105 0
104 105 106 0
-107 98 0
-107 106 0
-98 -106 107 0
-108 -36 0
-108 13 0
36 -13 108 0
-108 11 -109 0
108 -11 -109 0
-108 -11 109 0
108 11 109 0
110 109 0
110 -24 0
-109 24 -110 0
-111 -80 0
-111 -23 0
80 23 111 0
112 -108 0
112 -60 0
108 60 -112 0
-113 -111 0
-113 -112 0
111 112 113 0
114 95 0
114 46 0
-95 -46 -114 0
-115 113 0
-115 114 0
-113 -114 115 0
116 -110 0
116 115 0
110 -115 -116 0
-117 107 0
-117 116 0
-107 -116 117 0
-118 -37 0
-118 43 0
37 -43 118 0
-119 -118 0
-119 21 0
118 -21 119 0
-120 -60 0
-120 7 0
60 -7 120 0
-119 120 -121 0
119 -120 -121 0
-119 -120 121 0
119 120 121 0
122 80 0
122 102 0
-80 -102 -122 0
-123 -121 0
-123 -122 0
121 122 123 0
124 -117 0
124 -123 0
117 123 -124 0
25 -11 -125 0
-25 11 -125 0
25 11 125 0
-25 -11 125 0
33 -17 -126 0
-33 17 -126 0
33 17 126 0
-33 -17 126 0
-13 -126 -127 0
13 126 -127 0
-13 126 127 0
13 -126 127 0
125 -127 -128 0
-125 127 -128 0
125 127 128 0
-125 -127 128 0
-80 2 -129 0
80 -2 -129 0
-80 -2 129 0
80 2 129 0
130 129 0
130 -20 0
-129 20 -130 0
-131 2 0
-131 2 0
-2 131 0
-132 130 0
-132 131 0
-130 -131 132 0
-133 128 0
-133 132 0
-128 -132 133 0
-95 11 -134 0
95 -11 -134 0
-95 -11 134 0
95 11 134 0
135 -134 0
135 16 0
134 -16 -135 0
-136 74 0
-136 1 0
-74 -1 136 0
135 -136 -137 0
-135 136 -137 0
135 136 137 0
-135 -136 137 0
-138 133 0
-138 -137 0
-133 137 138 0
139 -124 0
139 -138 0
124 138 -139 0
-140 94 0
-140 -139 0
-94 139 140 0
137 101 24 -44 0
89 -24 0
40 111 -63 19 2 -21 0
-102 -40 0
-99 -121 9 -94 -64 0
-66 -125 0
-22 -3 49 0
105 61 111 0
-66 126 1 55 -42 0
-11 -52 60 86 -119 -20 0
135 123 -107 12 0
-112 -85 -58 -89 0
75 106 -101 0
-140 32 -37 0
92 -42 -91 75 -118 0
13 -12 -88 -68 4 0
-71 84 57 0
139 -23 72 137 -39 0
112 9 5 -55 -124 -65 0
49 126 -73 25 0
-97 -27 -28 0
118 130 -62 3 -128 0
124 55 48 0
95 -77 107 -28 -57 0
11 106 -49 -126 -73 0
56 -45 -64 48 -18 -130 0
75 -68 -118 0
-92 9 0
33 119 0
-38 -16 -23 127 0
-113 63 102 -74 -116 0
63 -122 -130 119 -18 41 0
-26 -41 -36 0
127 37 -101 99 -125 31 0
-26 77 87 40 0
79 127 -106 72 0
17 -34 -12 38 139 68 0
-32 -126 -14 0
109 85 81 -111 104 123 0
100 -65 135 25 0
-92 48 -13 -50 0
55 68 99 0
-80 32 -99 85 -140 -100 0
23 -74 0
51 82 0
-98 108 -93 -136 -58 0
-14 -99 80 63 0
65 -33 24 0
-132 -27 -30 94 0
138 5 81 -129 -10 0
66 109 -105 0
14 -32 12 4 -76 -113 0
89 -138 0
137 -78 -41 -115 -67 0
132 37 0
-89 132 95 69 -110 50 0
134 25 -76 0
-7 -139 58 0
-28 -7 -46 0
-16 87 -79 -2 36 -46 0
47 129 140 45 0
140 0
